NAME: random89
TYPE: TSP
DIMENSION: 89
EDGE_WEIGHT_TYPE: EXPLICIT
EDGE_WEIGHT_FORMAT: FULL_MATRIX
EDGE_WEIGHT_SECTION
0 125 125 125 125 125 125 125 125 125 125 125 125 125 125 125 125 125 125 125 125 125 10 125 125 125 125 125 125 125 125 125 125 125 125 125 125 125 125 125 125 125 125 125 125 125 125 125 125 125 125 125 125 125 125 125 125 125 125 125 125 125 125 5 125 125 125 125 125 125 125 125 125 125 125 125 125 5 9 125 125 125 125 125 15 125 125 125 125
125 0 125 125 125 125 125 125 125 125 125 125 125 125 125 15 8 9 125 125 125 125 125 125 125 4 125 125 125 125 125 125 125 125 15 125 125 125 125 125 125 125 125 7 125 125 125 125 125 125 125 125 125 125 125 125 125 125 125 125 125 125 125 125 125 125 125 125 125 125 125 125 125 125 125 125 125 125 125 125 125 125 125 125 125 125 125 125 125
125 125 0 125 125 125 125 125 125 125 5 125 125 125 125 125 125 38 125 125 125 125 125 125 125 28 125 125 125 125 9 125 125 125 125 125 125 125 125 125 125 125 125 125 125 125 125 125 125 125 125 125 125 125 125 125 125 125 125 125 125 125 125 125 125 125 125 41 125 125 125 125 125 125 125 125 125 125 16 125 125 125 125 125 125 125 125 125 125
125 125 125 0 8 125 125 9 125 125 125 125 125 125 125 125 125 125 11 125 125 125 125 125 125 125 125 125 125 125 125 125 125 125 125 125 125 13 125 125 125 125 125 125 125 125 125 125 125 125 125 125 125 125 125 125 125 125 125 6 125 125 125 125 125 125 125 125 125 125 125 125 125 125 125 125 125 125 125 125 125 125 125 125 125 125 125 10 125
125 125 125 8 0 125 125 1 125 125 125 125 125 125 125 125 125 125 125 125 125 125 125 125 125 125 125 125 125 125 125 125 125 125 125 125 125 125 14 125 125 125 125 125 125 125 125 125 125 125 125 125 125 125 125 125 125 125 125 10 125 125 125 125 125 125 21 125 125 125 125 125 125 125 125 125 125 125 125 125 125 125 125 125 125 125 125 125 125
125 125 125 125 125 0 125 125 125 125 125 125 125 125 17 125 125 125 125 125 125 125 125 125 125 125 125 125 125 125 125 125 125 125 125 125 125 125 125 13 125 125 125 125 125 125 125 125 125 125 125 7 125 125 125 125 125 125 125 125 6 125 125 125 125 125 125 125 125 15 125 125 125 13 125 125 125 125 125 125 125 125 125 125 125 125 125 125 125
125 125 125 125 125 125 0 125 125 125 125 125 125 125 125 125 125 125 125 125 125 125 125 125 125 125 125 125 125 125 125 125 125 125 125 125 125 125 125 125 125 125 125 125 125 22 125 125 125 125 125 125 125 125 125 125 125 125 125 125 125 125 125 125 125 20 125 125 125 125 125 125 125 125 11 125 125 125 125 125 125 125 10 18 125 125 4 125 125
125 125 125 9 1 125 125 0 125 125 125 125 125 125 125 125 125 125 125 125 125 125 125 125 125 125 125 125 125 125 125 125 125 125 125 125 125 17 14 125 125 125 125 125 125 125 125 125 125 125 125 125 125 125 11 125 16 125 125 125 125 125 125 125 125 125 125 125 125 125 125 125 125 125 125 125 125 125 125 125 125 125 125 125 125 125 125 125 125
125 125 125 125 125 125 125 125 0 17 11 125 15 125 125 125 125 125 125 125 125 125 125 125 125 125 125 125 125 125 8 125 125 125 125 125 125 125 125 125 125 125 125 125 125 125 125 125 125 15 125 125 125 125 125 125 125 125 125 125 125 125 125 125 125 125 125 125 125 125 125 125 125 125 125 125 125 125 125 125 125 125 125 125 6 125 125 125 125
125 125 125 125 125 125 125 125 17 0 125 125 8 125 125 125 125 125 125 125 125 12 125 125 125 125 125 125 125 13 19 125 125 125 125 125 125 125 125 125 125 125 125 125 125 125 125 125 125 125 125 125 125 125 125 125 125 125 125 125 125 125 125 125 125 125 125 16 125 125 125 125 125 125 125 125 125 125 125 125 125 125 125 125 125 125 125 125 125
125 125 5 125 125 125 125 125 11 125 0 125 125 125 125 125 125 125 125 125 125 125 125 125 125 125 125 125 125 125 6 125 125 125 125 125 125 125 125 125 125 125 125 125 125 125 125 125 125 125 125 125 125 125 125 125 125 125 125 125 125 125 125 125 125 125 125 125 125 125 125 125 125 125 125 125 125 125 14 125 125 125 125 125 13 125 125 125 125
125 125 125 125 125 125 125 125 125 125 125 0 125 125 125 125 125 125 125 125 125 125 125 125 125 125 125 125 125 125 125 125 8 15 125 125 125 125 125 125 125 14 19 125 125 125 125 125 125 125 125 125 125 125 125 125 125 125 125 125 125 125 125 125 125 125 125 125 125 125 4 125 125 125 125 125 125 125 125 15 125 125 125 125 125 125 125 125 125
125 125 125 125 125 125 125 125 15 8 125 125 0 125 125 125 125 125 125 125 125 14 125 125 125 125 125 125 125 125 125 125 125 125 125 125 125 125 125 11 125 125 125 125 125 125 125 125 125 15 125 125 125 125 125 125 125 125 125 125 125 125 125 125 125 125 125 125 125 125 125 125 125 14 125 125 125 125 125 125 125 125 125 125 125 125 125 125 125
125 125 125 125 125 125 125 125 125 125 125 125 125 0 125 125 125 125 11 125 125 125 125 11 125 125 9 125 125 125 125 125 125 125 125 125 125 125 125 125 125 125 125 125 125 125 125 125 125 125 125 125 125 125 125 125 125 125 125 125 125 125 125 125 125 125 125 125 125 125 125 125 125 125 125 125 6 125 125 125 125 125 125 125 125 13 125 125 125
125 125 125 125 125 17 125 125 125 125 125 125 125 125 0 125 125 125 125 125 125 125 125 125 20 125 125 125 125 125 125 125 125 125 125 125 125 125 125 125 125 125 125 125 125 125 125 19 125 125 125 11 125 125 125 125 125 125 14 125 125 125 125 125 125 125 125 125 22 29 125 125 125 125 125 125 125 125 125 125 125 125 125 125 125 125 125 125 125
125 15 125 125 125 125 125 125 125 125 125 125 125 125 125 0 125 125 125 125 125 125 125 125 125 16 125 125 125 125 125 125 125 125 15 125 125 125 125 125 125 125 125 125 125 125 125 125 125 125 125 125 2 125 125 125 15 125 125 125 125 125 125 125 125 125 125 125 125 125 125 125 125 125 125 125 125 125 15 125 125 125 125 125 125 125 125 125 125
125 8 125 125 125 125 125 125 125 125 125 125 125 125 125 125 0 6 125 125 125 125 125 125 125 125 125 125 125 125 125 125 125 125 13 125 125 125 125 125 125 125 125 2 125 125 125 125 14 125 125 125 125 125 125 125 125 125 125 125 125 125 125 125 125 125 125 125 125 125 125 125 125 125 125 125 125 125 125 125 13 125 125 125 125 125 125 125 125
125 9 38 125 125 125 125 125 125 125 125 125 125 125 125 125 6 0 125 125 125 125 125 125 125 10 125 125 125 125 125 125 125 125 125 125 125 125 125 125 125 125 125 5 125 125 125 125 15 125 125 125 125 125 125 125 125 125 125 125 125 125 125 125 125 125 125 125 125 125 125 125 125 125 125 125 125 125 125 125 125 18 125 125 125 125 125 125 125
125 125 125 11 125 125 125 125 125 125 125 125 125 11 125 125 125 125 0 125 125 125 125 18 125 125 3 125 125 125 125 125 125 125 125 125 125 125 125 125 125 125 125 125 125 125 125 125 125 125 125 125 125 125 125 125 125 125 125 14 125 25 125 125 125 125 125 125 125 125 125 125 125 125 125 125 125 125 125 125 125 125 11 125 125 125 125 2 125
125 125 125 125 125 125 125 125 125 125 125 125 125 125 125 125 125 125 125 0 125 125 125 125 125 125 125 125 125 125 125 125 125 125 125 125 125 125 125 125 125 125 125 125 3 11 125 125 125 125 125 125 125 125 125 125 125 125 125 125 125 125 125 125 125 125 125 125 125 125 125 125 125 125 125 6 125 125 125 125 125 125 125 125 125 125 125 125 125
125 125 125 125 125 125 125 125 125 125 125 125 125 125 125 125 125 125 125 125 0 125 125 125 125 125 125 125 125 125 125 125 125 125 125 125 125 4 125 125 125 125 125 125 125 125 125 125 125 125 125 125 20 13 125 125 12 125 125 125 125 125 125 21 125 125 125 125 125 125 125 125 125 125 125 125 7 125 125 125 125 125 125 125 125 125 125 125 125
125 125 125 125 125 125 125 125 125 12 125 125 14 125 125 125 125 125 125 125 125 0 125 125 125 125 125 125 125 8 125 125 125 125 125 125 125 125 125 125 125 125 125 125 125 125 125 125 125 125 125 125 125 125 125 125 125 125 125 125 125 125 125 125 125 125 125 125 125 6 125 125 125 5 125 125 125 125 125 125 125 125 125 125 125 125 125 125 125
10 125 125 125 125 125 125 125 125 125 125 125 125 125 125 125 125 125 125 125 125 125 0 125 125 125 125 125 125 125 125 125 125 125 125 125 125 125 125 125 125 125 125 125 125 125 125 125 125 11 125 125 125 17 125 125 125 28 125 125 125 125 125 7 125 125 125 125 125 125 125 125 125 125 125 125 125 125 125 125 125 125 125 125 14 21 125 125 125
125 125 125 125 125 125 125 125 125 125 125 125 125 11 125 125 125 125 18 125 125 125 125 0 125 125 125 13 125 125 125 125 125 125 125 125 11 125 125 125 125 125 125 125 125 125 125 125 125 125 125 125 125 125 125 125 125 125 125 125 125 17 125 125 125 125 125 125 125 125 125 125 125 125 125 125 125 125 125 125 125 125 125 125 125 14 125 125 125
125 125 125 125 125 125 125 125 125 125 125 125 125 125 20 125 125 125 125 125 125 125 125 125 0 125 125 125 125 125 125 125 125 125 125 15 125 125 125 27 16 125 125 125 125 125 125 125 125 31 125 125 125 125 125 125 125 16 17 125 125 125 125 125 125 125 125 125 8 125 125 125 125 125 125 125 125 125 125 125 125 125 125 125 125 125 125 125 125
125 4 28 125 125 125 125 125 125 125 125 125 125 125 125 16 125 10 125 125 125 125 125 125 125 0 125 125 125 125 125 125 125 125 125 125 125 125 125 125 125 125 125 125 125 125 125 125 125 125 125 125 125 125 125 125 125 125 125 125 125 125 125 125 125 125 125 125 125 125 125 125 125 125 125 125 125 125 22 125 125 125 125 125 125 125 125 125 125
125 125 125 125 125 125 125 125 125 125 125 125 125 9 125 125 125 125 3 125 125 125 125 125 125 125 0 125 125 125 125 125 125 125 125 125 125 10 125 125 125 125 125 125 125 125 125 125 125 125 125 125 125 125 125 125 125 125 125 125 125 125 125 125 125 125 125 125 125 125 125 125 125 125 125 125 10 125 125 125 125 125 125 125 125 125 125 1 125
125 125 125 125 125 125 125 125 125 125 125 125 125 125 125 125 125 125 125 125 125 125 125 13 125 125 125 0 125 125 125 125 125 125 125 125 16 125 125 125 125 125 12 125 125 125 125 125 125 125 125 125 125 125 125 125 125 10 125 125 125 125 125 125 125 125 125 125 125 125 125 125 9 125 125 125 125 125 125 125 125 125 125 125 125 14 125 125 125
125 125 125 125 125 125 125 125 125 125 125 125 125 125 125 125 125 125 125 125 125 125 125 125 125 125 125 125 0 125 125 125 125 125 125 125 125 125 7 125 125 125 125 125 125 125 125 125 18 125 125 125 125 125 7 125 125 125 125 125 125 125 125 125 125 125 125 125 125 125 125 125 125 125 125 125 125 125 125 125 7 20 125 125 125 125 125 125 125
125 125 125 125 125 125 125 125 125 13 125 125 125 125 125 125 125 125 125 125 125 8 125 125 125 125 125 125 125 0 125 125 125 125 125 125 125 125 125 125 125 125 125 125 125 125 125 125 125 125 125 125 125 125 125 125 125 125 125 125 125 125 125 125 125 125 125 5 125 12 125 125 125 125 125 125 125 125 125 125 125 125 125 125 125 125 125 125 125
125 125 9 125 125 125 125 125 8 19 6 125 125 125 125 125 125 125 125 125 125 125 125 125 125 125 125 125 125 125 0 125 125 125 125 125 125 125 125 125 125 125 125 125 125 125 125 125 125 125 125 125 125 125 125 125 125 125 125 125 125 125 125 125 125 125 125 33 125 125 125 125 125 125 125 125 125 125 125 125 125 125 125 125 125 125 125 125 125
125 125 125 125 125 125 125 125 125 125 125 125 125 125 125 125 125 125 125 125 125 125 125 125 125 125 125 125 125 125 125 0 10 125 125 17 125 125 125 125 19 125 17 125 125 125 125 125 125 125 125 125 125 125 125 20 125 125 125 125 125 125 125 125 23 125 125 125 125 125 12 125 19 125 125 125 125 125 125 125 125 125 125 125 125 125 125 125 125
125 125 125 125 125 125 125 125 125 125 125 8 125 125 125 125 125 125 125 125 125 125 125 125 125 125 125 125 125 125 125 10 0 23 125 125 125 125 125 125 125 125 125 125 125 125 125 125 125 125 125 125 125 125 125 24 125 125 125 125 125 125 125 125 125 125 125 125 125 125 3 125 125 125 125 125 125 125 125 125 125 125 125 125 125 125 125 125 125
125 125 125 125 125 125 125 125 125 125 125 15 125 125 125 125 125 125 125 125 125 125 125 125 125 125 125 125 125 125 125 125 23 0 125 125 125 125 125 125 125 7 125 125 12 125 125 125 125 125 125 125 125 125 125 45 125 125 125 125 125 125 125 125 125 125 125 125 125 125 125 8 125 125 125 125 125 125 125 125 125 125 125 125 125 125 125 125 125
125 15 125 125 125 125 125 125 125 125 125 125 125 125 125 15 13 125 125 125 125 125 125 125 125 125 125 125 125 125 125 125 125 125 0 125 125 125 125 125 125 125 125 125 125 125 125 125 125 125 125 125 125 125 10 125 10 125 125 125 125 125 125 125 125 125 125 125 125 125 125 125 125 125 125 125 125 125 125 125 9 125 125 125 125 125 125 125 125
125 125 125 125 125 125 125 125 125 125 125 125 125 125 125 125 125 125 125 125 125 125 125 125 15 125 125 125 125 125 125 17 125 125 125 0 125 125 125 125 7 125 125 125 125 125 22 125 125 125 125 125 125 125 125 125 125 125 125 125 125 125 125 125 29 125 125 125 12 125 125 125 125 125 125 125 125 125 125 125 125 125 125 125 125 125 125 125 125
125 125 125 125 125 125 125 125 125 125 125 125 125 125 125 125 125 125 125 125 125 125 125 11 125 125 125 16 125 125 125 125 125 125 125 125 0 125 125 125 125 125 10 125 125 125 125 125 125 125 125 125 125 125 125 125 125 125 125 125 125 9 125 125 125 125 125 125 125 125 125 125 125 125 125 125 125 125 125 8 125 125 125 125 125 125 125 125 125
125 125 125 13 125 125 125 17 125 125 125 125 125 125 125 125 125 125 125 125 4 125 125 125 125 125 10 125 125 125 125 125 125 125 125 125 125 0 125 125 125 125 125 125 125 125 125 125 125 125 125 125 125 125 125 125 11 125 125 125 125 125 125 125 125 125 125 125 125 125 125 125 125 125 125 125 9 125 125 125 125 125 125 125 125 125 125 11 125
125 125 125 125 14 125 125 14 125 125 125 125 125 125 125 125 125 125 125 125 125 125 125 125 125 125 125 125 7 125 125 125 125 125 125 125 125 125 0 125 125 125 125 125 125 125 125 125 125 125 125 125 125 125 11 125 125 125 125 125 125 125 125 125 125 125 31 125 125 125 125 125 125 125 125 125 125 125 125 125 125 25 125 57 125 125 125 125 125
125 125 125 125 125 13 125 125 125 125 125 125 11 125 125 125 125 125 125 125 125 125 125 125 27 125 125 125 125 125 125 125 125 125 125 125 125 125 125 0 125 125 125 125 125 125 125 125 125 11 125 125 125 125 125 125 125 125 14 125 10 125 125 125 125 125 125 125 125 125 125 125 125 17 125 125 125 125 125 125 125 125 125 125 125 125 125 125 125
125 125 125 125 125 125 125 125 125 125 125 125 125 125 125 125 125 125 125 125 125 125 125 125 16 125 125 125 125 125 125 19 125 125 125 7 125 125 125 125 0 125 125 125 125 125 125 125 125 125 125 125 125 125 125 125 125 8 125 125 125 125 125 125 125 125 125 125 125 125 125 125 5 125 125 125 125 125 125 125 125 125 125 125 125 125 125 125 125
125 125 125 125 125 125 125 125 125 125 125 14 125 125 125 125 125 125 125 125 125 125 125 125 125 125 125 125 125 125 125 125 125 7 125 125 125 125 125 125 125 0 125 125 125 125 125 125 125 125 125 125 125 125 125 125 125 125 125 125 125 125 2 125 125 125 125 125 125 125 125 4 125 125 125 125 125 125 125 12 125 125 125 125 125 125 125 125 125
125 125 125 125 125 125 125 125 125 125 125 19 125 125 125 125 125 125 125 125 125 125 125 125 125 125 125 12 125 125 125 17 125 125 125 125 10 125 125 125 125 125 0 125 125 125 125 125 125 125 125 125 125 125 125 125 125 125 125 125 125 125 125 125 125 125 125 125 125 125 19 125 10 125 125 125 125 125 125 13 125 125 125 125 125 125 125 125 125
125 7 125 125 125 125 125 125 125 125 125 125 125 125 125 125 2 5 125 125 125 125 125 125 125 125 125 125 125 125 125 125 125 125 125 125 125 125 125 125 125 125 125 0 125 125 125 125 125 125 125 125 125 125 125 125 125 125 125 125 125 125 125 125 125 125 125 125 125 125 125 125 125 125 125 125 125 125 125 125 125 125 125 125 125 125 125 125 125
125 125 125 125 125 125 125 125 125 125 125 125 125 125 125 125 125 125 125 3 125 125 125 125 125 125 125 125 125 125 125 125 125 12 125 125 125 125 125 125 125 125 125 125 0 11 125 125 125 125 11 125 125 125 125 57 125 125 125 125 125 125 125 125 125 125 125 125 125 125 125 11 125 125 125 9 125 125 125 125 125 125 125 125 125 125 125 125 11
125 125 125 125 125 125 22 125 125 125 125 125 125 125 125 125 125 125 125 11 125 125 125 125 125 125 125 125 125 125 125 125 125 125 125 125 125 125 125 125 125 125 125 125 11 0 125 125 125 125 4 125 125 125 125 125 125 125 125 125 125 125 125 125 125 9 125 125 125 125 125 125 125 125 125 13 125 125 125 125 125 125 125 19 125 125 125 125 125
125 125 125 125 125 125 125 125 125 125 125 125 125 125 125 125 125 125 125 125 125 125 125 125 125 125 125 125 125 125 125 125 125 125 125 22 125 125 125 125 125 125 125 125 125 125 0 8 125 125 125 125 125 125 125 125 125 125 125 125 125 125 125 125 24 125 125 125 15 125 125 125 125 125 125 125 125 125 125 125 125 125 125 125 125 125 125 125 125
125 125 125 125 125 125 125 125 125 125 125 125 125 125 19 125 125 125 125 125 125 125 125 125 125 125 125 125 125 125 125 125 125 125 125 125 125 125 125 125 125 125 125 125 125 125 8 0 125 125 125 125 125 125 125 125 125 125 125 125 125 125 125 125 31 125 125 125 15 47 125 125 125 125 125 125 125 125 125 125 125 125 125 125 125 125 125 125 125
125 125 125 125 125 125 125 125 125 125 125 125 125 125 125 125 14 15 125 125 125 125 125 125 125 125 125 125 18 125 125 125 125 125 125 125 125 125 125 125 125 125 125 125 125 125 125 125 0 125 125 125 125 125 125 125 125 125 125 125 125 125 125 125 125 125 125 125 125 125 125 125 125 125 125 125 125 125 125 125 16 4 125 125 125 125 125 125 125
125 125 125 125 125 125 125 125 15 125 125 125 15 125 125 125 125 125 125 125 125 125 11 125 31 125 125 125 125 125 125 125 125 125 125 125 125 125 125 11 125 125 125 125 125 125 125 125 125 0 125 125 125 125 125 125 125 31 125 125 125 125 125 125 125 125 125 125 125 125 125 125 125 125 125 125 125 125 125 125 125 125 125 125 12 125 125 125 125
125 125 125 125 125 125 125 125 125 125 125 125 125 125 125 125 125 125 125 125 125 125 125 125 125 125 125 125 125 125 125 125 125 125 125 125 125 125 125 125 125 125 125 125 11 4 125 125 125 125 0 125 125 125 125 125 125 125 125 125 125 125 125 125 125 9 125 125 125 125 125 125 125 125 125 125 125 125 125 125 125 125 125 125 125 125 125 125 1
125 125 125 125 125 7 125 125 125 125 125 125 125 125 11 125 125 125 125 125 125 125 125 125 125 125 125 125 125 125 125 125 125 125 125 125 125 125 125 125 125 125 125 125 125 125 125 125 125 125 125 0 125 125 125 125 125 125 4 125 6 125 125 125 125 125 125 125 125 125 125 125 125 125 125 125 125 125 125 125 125 125 125 125 125 125 125 125 125
125 125 125 125 125 125 125 125 125 125 125 125 125 125 125 2 125 125 125 125 20 125 125 125 125 125 125 125 125 125 125 125 125 125 125 125 125 125 125 125 125 125 125 125 125 125 125 125 125 125 125 125 0 125 125 125 16 125 125 125 125 125 125 16 125 125 125 125 125 125 125 125 125 125 125 125 125 9 14 125 125 125 125 125 125 125 125 125 125
125 125 125 125 125 125 125 125 125 125 125 125 125 125 125 125 125 125 125 125 13 125 17 125 125 125 125 125 125 125 125 125 125 125 125 125 125 125 125 125 125 125 125 125 125 125 125 125 125 125 125 125 125 0 125 125 125 125 125 125 125 125 125 13 125 125 125 125 125 125 125 125 125 125 125 125 11 125 125 125 125 125 125 125 125 7 125 125 125
125 125 125 125 125 125 125 11 125 125 125 125 125 125 125 125 125 125 125 125 125 125 125 125 125 125 125 125 7 125 125 125 125 125 10 125 125 125 11 125 125 125 125 125 125 125 125 125 125 125 125 125 125 125 0 125 12 125 125 125 125 125 125 125 125 125 125 125 125 125 125 125 125 125 125 125 125 125 125 125 8 125 125 125 125 125 125 125 125
125 125 125 125 125 125 125 125 125 125 125 125 125 125 125 125 125 125 125 125 125 125 125 125 125 125 125 125 125 125 125 20 24 45 125 125 125 125 125 125 125 125 125 125 57 125 125 125 125 125 125 125 125 125 125 0 125 125 125 125 125 125 125 125 4 125 125 125 125 125 125 125 125 125 125 125 125 125 125 125 125 125 125 125 125 125 125 125 125
125 125 125 125 125 125 125 16 125 125 125 125 125 125 125 15 125 125 125 125 12 125 125 125 125 125 125 125 125 125 125 125 125 125 10 125 125 11 125 125 125 125 125 125 125 125 125 125 125 125 125 125 16 125 12 125 0 125 125 125 125 125 125 125 125 125 125 125 125 125 125 125 125 125 125 125 125 125 125 125 125 125 125 125 125 125 125 125 125
125 125 125 125 125 125 125 125 125 125 125 125 125 125 125 125 125 125 125 125 125 125 28 125 16 125 125 10 125 125 125 125 125 125 125 125 125 125 125 125 8 125 125 125 125 125 125 125 125 31 125 125 125 125 125 125 125 0 125 125 125 125 125 125 125 125 125 125 125 125 125 125 9 125 125 125 125 125 125 125 125 125 125 125 125 19 125 125 125
125 125 125 125 125 125 125 125 125 125 125 125 125 125 14 125 125 125 125 125 125 125 125 125 17 125 125 125 125 125 125 125 125 125 125 125 125 125 125 14 125 125 125 125 125 125 125 125 125 125 125 4 125 125 125 125 125 125 0 125 5 125 125 125 125 125 125 125 125 125 125 125 125 125 125 125 125 125 125 125 125 125 125 125 125 125 125 125 125
125 125 125 6 10 125 125 125 125 125 125 125 125 125 125 125 125 125 14 125 125 125 125 125 125 125 125 125 125 125 125 125 125 125 125 125 125 125 125 125 125 125 125 125 125 125 125 125 125 125 125 125 125 125 125 125 125 125 125 0 125 125 125 125 125 125 13 125 125 125 125 125 125 125 125 125 125 125 125 125 125 125 13 125 125 125 125 125 125
125 125 125 125 125 6 125 125 125 125 125 125 125 125 125 125 125 125 125 125 125 125 125 125 125 125 125 125 125 125 125 125 125 125 125 125 125 125 125 10 125 125 125 125 125 125 125 125 125 125 125 6 125 125 125 125 125 125 5 125 0 125 125 125 125 125 125 125 125 125 125 125 125 125 125 125 125 125 125 125 125 125 125 125 125 125 125 125 125
125 125 125 125 125 125 125 125 125 125 125 125 125 125 125 125 125 125 25 125 125 125 125 17 125 125 125 125 125 125 125 125 125 125 125 125 9 125 125 125 125 125 125 125 125 125 125 125 125 125 125 125 125 125 125 125 125 125 125 125 125 0 13 125 125 7 125 125 125 125 125 125 125 125 125 125 125 125 125 7 125 125 24 125 125 125 125 125 125
125 125 125 125 125 125 125 125 125 125 125 125 125 125 125 125 125 125 125 125 125 125 125 125 125 125 125 125 125 125 125 125 125 125 125 125 125 125 125 125 125 2 125 125 125 125 125 125 125 125 125 125 125 125 125 125 125 125 125 125 125 13 0 125 125 11 125 125 125 125 125 3 125 125 125 125 125 125 125 12 125 125 125 125 125 125 125 125 5
5 125 125 125 125 125 125 125 125 125 125 125 125 125 125 125 125 125 125 125 21 125 7 125 125 125 125 125 125 125 125 125 125 125 125 125 125 125 125 125 125 125 125 125 125 125 125 125 125 125 125 125 16 13 125 125 125 125 125 125 125 125 125 0 125 125 125 125 125 125 125 125 125 125 125 125 125 9 125 125 125 125 125 125 125 125 125 125 125
125 125 125 125 125 125 125 125 125 125 125 125 125 125 125 125 125 125 125 125 125 125 125 125 125 125 125 125 125 125 125 23 125 125 125 29 125 125 125 125 125 125 125 125 125 125 24 31 125 125 125 125 125 125 125 4 125 125 125 125 125 125 125 125 0 125 125 125 125 125 125 125 125 125 125 125 125 125 125 125 125 125 125 125 125 125 125 125 125
125 125 125 125 125 125 20 125 125 125 125 125 125 125 125 125 125 125 125 125 125 125 125 125 125 125 125 125 125 125 125 125 125 125 125 125 125 125 125 125 125 125 125 125 125 9 125 125 125 125 9 125 125 125 125 125 125 125 125 125 125 7 11 125 125 0 125 125 125 125 125 125 125 125 125 125 125 125 125 125 125 125 22 125 125 125 125 125 9
125 125 125 125 21 125 125 125 125 125 125 125 125 125 125 125 125 125 125 125 125 125 125 125 125 125 125 125 125 125 125 125 125 125 125 125 125 125 31 125 125 125 125 125 125 125 125 125 125 125 125 125 125 125 125 125 125 125 125 13 125 125 125 125 125 125 0 125 125 125 125 125 125 125 2 125 125 125 125 125 125 125 13 26 125 125 9 125 125
125 125 41 125 125 125 125 125 125 16 125 125 125 125 125 125 125 125 125 125 125 125 125 125 125 125 125 125 125 5 33 125 125 125 125 125 125 125 125 125 125 125 125 125 125 125 125 125 125 125 125 125 125 125 125 125 125 125 125 125 125 125 125 125 125 125 125 0 125 17 125 125 125 125 125 125 125 125 125 125 125 125 125 125 125 125 125 125 125
125 125 125 125 125 125 125 125 125 125 125 125 125 125 22 125 125 125 125 125 125 125 125 125 8 125 125 125 125 125 125 125 125 125 125 12 125 125 125 125 125 125 125 125 125 125 15 15 125 125 125 125 125 125 125 125 125 125 125 125 125 125 125 125 125 125 125 125 0 125 125 125 125 125 125 125 125 125 125 125 125 125 125 125 125 125 125 125 125
125 125 125 125 125 15 125 125 125 125 125 125 125 125 29 125 125 125 125 125 125 6 125 125 125 125 125 125 125 12 125 125 125 125 125 125 125 125 125 125 125 125 125 125 125 125 125 47 125 125 125 125 125 125 125 125 125 125 125 125 125 125 125 125 125 125 125 17 125 0 125 125 125 5 125 125 125 125 125 125 125 125 125 125 125 125 125 125 125
125 125 125 125 125 125 125 125 125 125 125 4 125 125 125 125 125 125 125 125 125 125 125 125 125 125 125 125 125 125 125 12 3 125 125 125 125 125 125 125 125 125 19 125 125 125 125 125 125 125 125 125 125 125 125 125 125 125 125 125 125 125 125 125 125 125 125 125 125 125 0 125 125 125 125 125 125 125 125 125 125 125 125 125 125 125 125 125 125
125 125 125 125 125 125 125 125 125 125 125 125 125 125 125 125 125 125 125 125 125 125 125 125 125 125 125 125 125 125 125 125 125 8 125 125 125 125 125 125 125 4 125 125 11 125 125 125 125 125 125 125 125 125 125 125 125 125 125 125 125 125 3 125 125 125 125 125 125 125 125 0 125 125 125 125 125 125 125 125 125 125 125 125 125 125 125 125 3
125 125 125 125 125 125 125 125 125 125 125 125 125 125 125 125 125 125 125 125 125 125 125 125 125 125 125 9 125 125 125 19 125 125 125 125 125 125 125 125 5 125 10 125 125 125 125 125 125 125 125 125 125 125 125 125 125 9 125 125 125 125 125 125 125 125 125 125 125 125 125 125 0 125 125 125 125 125 125 125 125 125 125 125 125 125 125 125 125
125 125 125 125 125 13 125 125 125 125 125 125 14 125 125 125 125 125 125 125 125 5 125 125 125 125 125 125 125 125 125 125 125 125 125 125 125 125 125 17 125 125 125 125 125 125 125 125 125 125 125 125 125 125 125 125 125 125 125 125 125 125 125 125 125 125 125 125 125 5 125 125 125 0 125 125 125 125 125 125 125 125 125 125 125 125 125 125 125
125 125 125 125 125 125 11 125 125 125 125 125 125 125 125 125 125 125 125 125 125 125 125 125 125 125 125 125 125 125 125 125 125 125 125 125 125 125 125 125 125 125 125 125 125 125 125 125 125 125 125 125 125 125 125 125 125 125 125 125 125 125 125 125 125 125 2 125 125 125 125 125 125 125 0 125 125 125 125 125 125 125 125 24 125 125 8 125 125
125 125 125 125 125 125 125 125 125 125 125 125 125 125 125 125 125 125 125 6 125 125 125 125 125 125 125 125 125 125 125 125 125 125 125 125 125 125 125 125 125 125 125 125 9 13 125 125 125 125 125 125 125 125 125 125 125 125 125 125 125 125 125 125 125 125 125 125 125 125 125 125 125 125 125 0 125 125 125 125 125 125 125 14 125 125 125 125 125
125 125 125 125 125 125 125 125 125 125 125 125 125 6 125 125 125 125 125 125 7 125 125 125 125 125 10 125 125 125 125 125 125 125 125 125 125 9 125 125 125 125 125 125 125 125 125 125 125 125 125 125 125 11 125 125 125 125 125 125 125 125 125 125 125 125 125 125 125 125 125 125 125 125 125 125 0 125 125 125 125 125 125 125 125 12 125 125 125
5 125 125 125 125 125 125 125 125 125 125 125 125 125 125 125 125 125 125 125 125 125 125 125 125 125 125 125 125 125 125 125 125 125 125 125 125 125 125 125 125 125 125 125 125 125 125 125 125 125 125 125 9 125 125 125 125 125 125 125 125 125 125 9 125 125 125 125 125 125 125 125 125 125 125 125 125 0 8 125 125 125 125 125 125 125 125 125 125
9 125 16 125 125 125 125 125 125 125 14 125 125 125 125 15 125 125 125 125 125 125 125 125 125 22 125 125 125 125 125 125 125 125 125 125 125 125 125 125 125 125 125 125 125 125 125 125 125 125 125 125 14 125 125 125 125 125 125 125 125 125 125 125 125 125 125 125 125 125 125 125 125 125 125 125 125 8 0 125 125 125 125 125 14 125 125 125 125
125 125 125 125 125 125 125 125 125 125 125 15 125 125 125 125 125 125 125 125 125 125 125 125 125 125 125 125 125 125 125 125 125 125 125 125 8 125 125 125 125 12 13 125 125 125 125 125 125 125 125 125 125 125 125 125 125 125 125 125 125 7 12 125 125 125 125 125 125 125 125 125 125 125 125 125 125 125 125 0 125 125 125 125 125 125 125 125 125
125 125 125 125 125 125 125 125 125 125 125 125 125 125 125 125 13 125 125 125 125 125 125 125 125 125 125 125 7 125 125 125 125 125 9 125 125 125 125 125 125 125 125 125 125 125 125 125 16 125 125 125 125 125 8 125 125 125 125 125 125 125 125 125 125 125 125 125 125 125 125 125 125 125 125 125 125 125 125 125 0 125 125 125 125 125 125 125 125
125 125 125 125 125 125 125 125 125 125 125 125 125 125 125 125 125 18 125 125 125 125 125 125 125 125 125 125 20 125 125 125 125 125 125 125 125 125 25 125 125 125 125 125 125 125 125 125 4 125 125 125 125 125 125 125 125 125 125 125 125 125 125 125 125 125 125 125 125 125 125 125 125 125 125 125 125 125 125 125 125 0 125 125 125 125 125 125 125
125 125 125 125 125 125 10 125 125 125 125 125 125 125 125 125 125 125 11 125 125 125 125 125 125 125 125 125 125 125 125 125 125 125 125 125 125 125 125 125 125 125 125 125 125 125 125 125 125 125 125 125 125 125 125 125 125 125 125 13 125 24 125 125 125 22 13 125 125 125 125 125 125 125 125 125 125 125 125 125 125 125 0 125 125 125 8 125 125
125 125 125 125 125 125 18 125 125 125 125 125 125 125 125 125 125 125 125 125 125 125 125 125 125 125 125 125 125 125 125 125 125 125 125 125 125 125 57 125 125 125 125 125 125 19 125 125 125 125 125 125 125 125 125 125 125 125 125 125 125 125 125 125 125 125 26 125 125 125 125 125 125 125 24 14 125 125 125 125 125 125 125 0 125 125 125 125 125
15 125 125 125 125 125 125 125 6 125 13 125 125 125 125 125 125 125 125 125 125 125 14 125 125 125 125 125 125 125 125 125 125 125 125 125 125 125 125 125 125 125 125 125 125 125 125 125 125 12 125 125 125 125 125 125 125 125 125 125 125 125 125 125 125 125 125 125 125 125 125 125 125 125 125 125 125 125 14 125 125 125 125 125 0 125 125 125 125
125 125 125 125 125 125 125 125 125 125 125 125 125 13 125 125 125 125 125 125 125 125 21 14 125 125 125 14 125 125 125 125 125 125 125 125 125 125 125 125 125 125 125 125 125 125 125 125 125 125 125 125 125 7 125 125 125 19 125 125 125 125 125 125 125 125 125 125 125 125 125 125 125 125 125 125 12 125 125 125 125 125 125 125 125 0 125 125 125
125 125 125 125 125 125 4 125 125 125 125 125 125 125 125 125 125 125 125 125 125 125 125 125 125 125 125 125 125 125 125 125 125 125 125 125 125 125 125 125 125 125 125 125 125 125 125 125 125 125 125 125 125 125 125 125 125 125 125 125 125 125 125 125 125 125 9 125 125 125 125 125 125 125 8 125 125 125 125 125 125 125 8 125 125 125 0 125 125
125 125 125 10 125 125 125 125 125 125 125 125 125 125 125 125 125 125 2 125 125 125 125 125 125 125 1 125 125 125 125 125 125 125 125 125 125 11 125 125 125 125 125 125 125 125 125 125 125 125 125 125 125 125 125 125 125 125 125 125 125 125 125 125 125 125 125 125 125 125 125 125 125 125 125 125 125 125 125 125 125 125 125 125 125 125 125 0 125
125 125 125 125 125 125 125 125 125 125 125 125 125 125 125 125 125 125 125 125 125 125 125 125 125 125 125 125 125 125 125 125 125 125 125 125 125 125 125 125 125 125 125 125 11 125 125 125 125 125 1 125 125 125 125 125 125 125 125 125 125 125 5 125 125 9 125 125 125 125 125 3 125 125 125 125 125 125 125 125 125 125 125 125 125 125 125 125 0
EOF
